c File: data_files/evolved_graphs/g0503.col
c
c Auto generated graph
c
p edge 100 2689
e 1 5
e 1 12
e 1 13
e 1 14
e 1 15
e 1 16
e 1 17
e 1 18
e 1 19
e 1 20
e 1 21
e 1 22
e 1 23
e 1 24
e 1 25
e 1 26
e 1 27
e 1 28
e 1 29
e 1 30
e 1 31
e 1 32
e 1 33
e 1 34
e 1 35
e 1 36
e 1 37
e 1 38
e 1 39
e 1 40
e 1 42
e 1 43
e 1 44
e 1 46
e 1 47
e 1 48
e 1 49
e 1 52
e 1 54
e 1 56
e 1 59
e 1 60
e 1 66
e 1 69
e 1 75
e 1 84
e 1 89
e 1 91
e 1 93
e 1 98
e 1 99
e 2 12
e 2 13
e 2 14
e 2 15
e 2 16
e 2 17
e 2 18
e 2 19
e 2 20
e 2 21
e 2 22
e 2 23
e 2 24
e 2 25
e 2 26
e 2 27
e 2 28
e 2 29
e 2 30
e 2 31
e 2 32
e 2 33
e 2 34
e 2 35
e 2 36
e 2 37
e 2 42
e 2 43
e 2 44
e 2 45
e 2 52
e 2 54
e 2 56
e 2 59
e 2 60
e 2 66
e 2 69
e 2 70
e 2 71
e 2 75
e 2 78
e 2 82
e 2 84
e 2 89
e 2 90
e 2 91
e 2 93
e 2 98
e 2 99
e 3 12
e 3 13
e 3 14
e 3 15
e 3 16
e 3 17
e 3 18
e 3 19
e 3 20
e 3 21
e 3 22
e 3 23
e 3 24
e 3 25
e 3 26
e 3 27
e 3 28
e 3 29
e 3 30
e 3 31
e 3 32
e 3 33
e 3 34
e 3 35
e 3 36
e 3 37
e 3 42
e 3 43
e 3 44
e 3 45
e 3 46
e 3 48
e 3 50
e 3 52
e 3 55
e 3 56
e 3 59
e 3 61
e 3 64
e 3 65
e 3 66
e 3 69
e 3 70
e 3 71
e 3 74
e 3 77
e 3 79
e 3 83
e 3 84
e 3 85
e 3 87
e 3 89
e 3 90
e 3 92
e 3 93
e 4 12
e 4 13
e 4 14
e 4 15
e 4 16
e 4 17
e 4 18
e 4 19
e 4 20
e 4 21
e 4 22
e 4 23
e 4 24
e 4 25
e 4 26
e 4 27
e 4 28
e 4 29
e 4 30
e 4 31
e 4 32
e 4 33
e 4 34
e 4 35
e 4 36
e 4 37
e 4 41
e 4 42
e 4 43
e 4 44
e 4 45
e 4 53
e 4 54
e 4 57
e 4 62
e 4 71
e 4 72
e 4 73
e 4 75
e 4 76
e 4 78
e 4 80
e 4 82
e 4 88
e 4 90
e 4 91
e 4 95
e 4 99
e 4 100
e 5 12
e 5 13
e 5 14
e 5 15
e 5 16
e 5 17
e 5 18
e 5 19
e 5 20
e 5 21
e 5 22
e 5 23
e 5 24
e 5 25
e 5 26
e 5 27
e 5 28
e 5 29
e 5 30
e 5 31
e 5 32
e 5 33
e 5 34
e 5 35
e 5 36
e 5 37
e 5 39
e 5 41
e 5 42
e 5 43
e 5 47
e 5 49
e 5 52
e 5 54
e 5 56
e 5 57
e 5 59
e 5 60
e 5 66
e 5 69
e 5 71
e 5 75
e 5 76
e 5 78
e 5 80
e 5 82
e 5 84
e 5 88
e 5 89
e 5 90
e 5 91
e 5 95
e 5 98
e 5 99
e 6 12
e 6 13
e 6 14
e 6 15
e 6 16
e 6 17
e 6 18
e 6 19
e 6 20
e 6 21
e 6 22
e 6 24
e 6 25
e 6 26
e 6 27
e 6 28
e 6 29
e 6 30
e 6 31
e 6 32
e 6 33
e 6 34
e 6 35
e 6 36
e 6 37
e 6 41
e 6 42
e 6 43
e 6 51
e 6 53
e 6 57
e 6 62
e 6 63
e 6 72
e 6 73
e 6 75
e 6 76
e 6 78
e 6 80
e 6 82
e 6 88
e 6 90
e 6 95
e 6 96
e 6 99
e 6 100
e 7 13
e 7 14
e 7 15
e 7 16
e 7 17
e 7 18
e 7 19
e 7 20
e 7 21
e 7 22
e 7 23
e 7 24
e 7 25
e 7 26
e 7 27
e 7 28
e 7 29
e 7 30
e 7 31
e 7 32
e 7 33
e 7 34
e 7 35
e 7 36
e 7 37
e 7 41
e 7 42
e 7 43
e 7 44
e 7 45
e 7 50
e 7 52
e 7 55
e 7 56
e 7 58
e 7 59
e 7 60
e 7 61
e 7 64
e 7 65
e 7 66
e 7 69
e 7 70
e 7 71
e 7 72
e 7 74
e 7 77
e 7 79
e 7 81
e 7 82
e 7 83
e 7 84
e 7 85
e 7 86
e 7 87
e 7 89
e 7 90
e 7 92
e 7 93
e 8 12
e 8 13
e 8 14
e 8 15
e 8 16
e 8 17
e 8 18
e 8 19
e 8 20
e 8 21
e 8 22
e 8 23
e 8 24
e 8 25
e 8 26
e 8 27
e 8 28
e 8 29
e 8 30
e 8 31
e 8 32
e 8 33
e 8 34
e 8 35
e 8 36
e 8 37
e 8 42
e 8 43
e 8 44
e 8 45
e 8 50
e 8 51
e 8 52
e 8 53
e 8 54
e 8 55
e 8 56
e 8 57
e 8 58
e 8 59
e 8 60
e 8 61
e 8 62
e 8 63
e 8 64
e 8 65
e 8 66
e 8 67
e 8 68
e 8 69
e 8 70
e 8 71
e 8 72
e 8 73
e 8 74
e 8 75
e 8 76
e 8 77
e 8 78
e 8 80
e 8 82
e 8 83
e 8 84
e 8 85
e 8 86
e 8 88
e 8 89
e 8 90
e 8 91
e 8 92
e 8 93
e 8 94
e 8 95
e 8 97
e 8 98
e 8 99
e 9 12
e 9 13
e 9 14
e 9 15
e 9 16
e 9 17
e 9 18
e 9 19
e 9 20
e 9 21
e 9 22
e 9 23
e 9 24
e 9 25
e 9 26
e 9 27
e 9 28
e 9 29
e 9 30
e 9 31
e 9 32
e 9 33
e 9 34
e 9 35
e 9 36
e 9 37
e 9 38
e 9 42
e 9 44
e 9 45
e 9 46
e 9 48
e 9 50
e 9 51
e 9 52
e 9 53
e 9 54
e 9 55
e 9 56
e 9 57
e 9 58
e 9 59
e 9 60
e 9 61
e 9 62
e 9 63
e 9 64
e 9 65
e 9 66
e 9 67
e 9 68
e 9 69
e 9 70
e 9 71
e 9 72
e 9 73
e 9 74
e 9 75
e 9 76
e 9 77
e 9 78
e 9 79
e 9 80
e 9 81
e 9 82
e 9 83
e 9 84
e 9 85
e 9 86
e 9 87
e 9 88
e 9 89
e 9 90
e 9 91
e 9 92
e 9 93
e 9 94
e 9 95
e 9 96
e 9 97
e 9 98
e 9 99
e 9 100
e 10 12
e 10 13
e 10 14
e 10 15
e 10 16
e 10 17
e 10 18
e 10 19
e 10 20
e 10 21
e 10 22
e 10 23
e 10 24
e 10 25
e 10 26
e 10 27
e 10 28
e 10 29
e 10 30
e 10 31
e 10 32
e 10 33
e 10 34
e 10 35
e 10 36
e 10 37
e 10 38
e 10 42
e 10 43
e 10 44
e 10 45
e 10 46
e 10 48
e 10 50
e 10 51
e 10 52
e 10 53
e 10 54
e 10 55
e 10 56
e 10 57
e 10 58
e 10 59
e 10 60
e 10 61
e 10 62
e 10 63
e 10 64
e 10 65
e 10 66
e 10 67
e 10 68
e 10 69
e 10 70
e 10 71
e 10 72
e 10 73
e 10 74
e 10 75
e 10 76
e 10 77
e 10 78
e 10 80
e 10 82
e 10 83
e 10 84
e 10 85
e 10 86
e 10 88
e 10 89
e 10 90
e 10 91
e 10 92
e 10 93
e 10 94
e 10 95
e 10 97
e 10 98
e 11 12
e 11 13
e 11 14
e 11 15
e 11 16
e 11 17
e 11 18
e 11 19
e 11 20
e 11 21
e 11 22
e 11 24
e 11 25
e 11 26
e 11 27
e 11 28
e 11 29
e 11 30
e 11 31
e 11 32
e 11 33
e 11 34
e 11 35
e 11 36
e 11 37
e 11 38
e 11 39
e 11 40
e 11 46
e 11 47
e 11 48
e 11 49
e 11 51
e 11 52
e 11 53
e 11 54
e 11 55
e 11 56
e 11 58
e 11 59
e 11 60
e 11 63
e 11 64
e 11 65
e 11 66
e 11 67
e 11 70
e 11 71
e 11 72
e 11 73
e 11 74
e 11 75
e 11 76
e 11 77
e 11 78
e 11 80
e 11 81
e 11 82
e 11 83
e 11 84
e 11 85
e 11 86
e 11 87
e 11 88
e 11 89
e 11 90
e 11 91
e 11 92
e 11 93
e 11 94
e 11 95
e 11 97
e 11 98
e 11 99
e 11 100
e 12 50
e 12 51
e 12 52
e 12 53
e 12 54
e 12 55
e 12 56
e 12 57
e 12 58
e 12 59
e 12 60
e 12 61
e 12 62
e 12 64
e 12 65
e 12 66
e 12 67
e 12 68
e 12 70
e 12 72
e 12 74
e 12 78
e 12 80
e 12 82
e 12 83
e 12 84
e 12 85
e 12 86
e 12 88
e 12 89
e 12 90
e 12 91
e 12 92
e 12 93
e 12 94
e 12 95
e 12 97
e 12 98
e 12 99
e 12 100
e 13 50
e 13 51
e 13 52
e 13 53
e 13 54
e 13 55
e 13 56
e 13 57
e 13 58
e 13 59
e 13 60
e 13 61
e 13 62
e 13 63
e 13 64
e 13 65
e 13 66
e 13 67
e 13 68
e 13 69
e 13 70
e 13 71
e 13 72
e 13 73
e 13 74
e 13 75
e 13 76
e 13 77
e 13 78
e 13 80
e 13 82
e 13 83
e 13 84
e 13 85
e 13 86
e 13 88
e 13 89
e 13 90
e 13 91
e 13 92
e 13 93
e 13 94
e 13 95
e 13 97
e 13 98
e 13 99
e 13 100
e 14 51
e 14 52
e 14 53
e 14 54
e 14 55
e 14 56
e 14 57
e 14 58
e 14 59
e 14 60
e 14 62
e 14 63
e 14 64
e 14 65
e 14 66
e 14 67
e 14 70
e 14 71
e 14 72
e 14 73
e 14 74
e 14 75
e 14 76
e 14 77
e 14 78
e 14 80
e 14 81
e 14 82
e 14 83
e 14 84
e 14 86
e 14 88
e 14 89
e 14 90
e 14 91
e 14 92
e 14 93
e 14 95
e 14 96
e 14 97
e 14 98
e 14 99
e 15 41
e 15 50
e 15 51
e 15 52
e 15 53
e 15 54
e 15 55
e 15 56
e 15 57
e 15 58
e 15 59
e 15 60
e 15 61
e 15 62
e 15 63
e 15 64
e 15 65
e 15 66
e 15 67
e 15 68
e 15 69
e 15 70
e 15 71
e 15 72
e 15 73
e 15 74
e 15 75
e 15 76
e 15 77
e 15 78
e 15 80
e 15 82
e 15 83
e 15 84
e 15 85
e 15 86
e 15 88
e 15 89
e 15 90
e 15 91
e 15 92
e 15 93
e 15 94
e 15 95
e 15 97
e 15 98
e 15 99
e 15 100
e 16 50
e 16 51
e 16 52
e 16 53
e 16 54
e 16 55
e 16 56
e 16 57
e 16 58
e 16 59
e 16 60
e 16 61
e 16 62
e 16 63
e 16 64
e 16 65
e 16 66
e 16 67
e 16 68
e 16 69
e 16 70
e 16 71
e 16 72
e 16 73
e 16 74
e 16 75
e 16 76
e 16 77
e 16 78
e 16 79
e 16 80
e 16 81
e 16 82
e 16 83
e 16 84
e 16 85
e 16 86
e 16 87
e 16 88
e 16 89
e 16 90
e 16 91
e 16 92
e 16 93
e 16 94
e 16 95
e 16 96
e 16 97
e 16 98
e 16 99
e 16 100
e 17 50
e 17 51
e 17 52
e 17 53
e 17 54
e 17 55
e 17 56
e 17 57
e 17 58
e 17 59
e 17 60
e 17 61
e 17 62
e 17 63
e 17 64
e 17 65
e 17 66
e 17 67
e 17 68
e 17 69
e 17 70
e 17 71
e 17 72
e 17 73
e 17 74
e 17 75
e 17 76
e 17 77
e 17 78
e 17 80
e 17 82
e 17 83
e 17 84
e 17 85
e 17 86
e 17 88
e 17 89
e 17 90
e 17 91
e 17 92
e 17 93
e 17 94
e 17 95
e 17 97
e 17 98
e 17 99
e 17 100
e 18 50
e 18 51
e 18 53
e 18 54
e 18 55
e 18 57
e 18 58
e 18 59
e 18 60
e 18 61
e 18 62
e 18 63
e 18 64
e 18 66
e 18 67
e 18 68
e 18 69
e 18 70
e 18 71
e 18 73
e 18 74
e 18 75
e 18 76
e 18 77
e 18 78
e 18 80
e 18 81
e 18 82
e 18 83
e 18 84
e 18 85
e 18 86
e 18 88
e 18 89
e 18 90
e 18 91
e 18 92
e 18 93
e 18 94
e 18 95
e 18 97
e 18 98
e 18 99
e 18 100
e 19 50
e 19 51
e 19 53
e 19 54
e 19 55
e 19 57
e 19 58
e 19 59
e 19 60
e 19 61
e 19 62
e 19 63
e 19 64
e 19 66
e 19 67
e 19 68
e 19 69
e 19 70
e 19 71
e 19 73
e 19 74
e 19 75
e 19 76
e 19 77
e 19 78
e 19 79
e 19 80
e 19 81
e 19 82
e 19 83
e 19 84
e 19 85
e 19 86
e 19 87
e 19 88
e 19 89
e 19 90
e 19 91
e 19 92
e 19 93
e 19 94
e 19 95
e 19 97
e 19 98
e 19 99
e 19 100
e 20 50
e 20 51
e 20 52
e 20 53
e 20 54
e 20 55
e 20 56
e 20 57
e 20 58
e 20 59
e 20 60
e 20 61
e 20 62
e 20 63
e 20 64
e 20 65
e 20 66
e 20 67
e 20 68
e 20 70
e 20 71
e 20 72
e 20 74
e 20 75
e 20 77
e 20 78
e 20 79
e 20 80
e 20 81
e 20 82
e 20 83
e 20 84
e 20 85
e 20 86
e 20 87
e 20 88
e 20 89
e 20 90
e 20 91
e 20 92
e 20 93
e 20 94
e 20 95
e 20 96
e 20 97
e 20 98
e 20 99
e 20 100
e 21 50
e 21 51
e 21 52
e 21 53
e 21 54
e 21 55
e 21 56
e 21 57
e 21 58
e 21 59
e 21 60
e 21 61
e 21 62
e 21 63
e 21 64
e 21 65
e 21 66
e 21 67
e 21 68
e 21 70
e 21 71
e 21 72
e 21 73
e 21 74
e 21 75
e 21 76
e 21 77
e 21 78
e 21 80
e 21 82
e 21 83
e 21 84
e 21 85
e 21 86
e 21 88
e 21 89
e 21 90
e 21 91
e 21 92
e 21 93
e 21 94
e 21 95
e 21 97
e 21 98
e 21 99
e 21 100
e 22 50
e 22 51
e 22 52
e 22 53
e 22 54
e 22 55
e 22 56
e 22 57
e 22 58
e 22 59
e 22 60
e 22 61
e 22 62
e 22 63
e 22 64
e 22 65
e 22 66
e 22 67
e 22 68
e 22 69
e 22 70
e 22 71
e 22 72
e 22 73
e 22 74
e 22 75
e 22 76
e 22 77
e 22 78
e 22 79
e 22 80
e 22 81
e 22 82
e 22 83
e 22 84
e 22 85
e 22 86
e 22 87
e 22 88
e 22 89
e 22 90
e 22 91
e 22 92
e 22 93
e 22 94
e 22 95
e 22 96
e 22 97
e 22 98
e 22 99
e 22 100
e 23 50
e 23 51
e 23 52
e 23 53
e 23 54
e 23 55
e 23 56
e 23 57
e 23 58
e 23 59
e 23 60
e 23 62
e 23 63
e 23 64
e 23 65
e 23 66
e 23 67
e 23 68
e 23 69
e 23 70
e 23 71
e 23 72
e 23 73
e 23 74
e 23 75
e 23 76
e 23 77
e 23 78
e 23 79
e 23 80
e 23 81
e 23 82
e 23 83
e 23 84
e 23 85
e 23 86
e 23 87
e 23 88
e 23 89
e 23 90
e 23 91
e 23 92
e 23 93
e 23 94
e 23 95
e 23 96
e 23 97
e 23 98
e 23 99
e 23 100
e 24 50
e 24 51
e 24 52
e 24 53
e 24 54
e 24 55
e 24 56
e 24 57
e 24 58
e 24 59
e 24 60
e 24 62
e 24 63
e 24 64
e 24 65
e 24 66
e 24 67
e 24 69
e 24 70
e 24 71
e 24 72
e 24 73
e 24 74
e 24 75
e 24 76
e 24 77
e 24 78
e 24 79
e 24 80
e 24 81
e 24 82
e 24 83
e 24 85
e 24 86
e 24 87
e 24 88
e 24 89
e 24 90
e 24 91
e 24 92
e 24 94
e 24 95
e 24 96
e 24 97
e 24 98
e 24 99
e 24 100
e 25 50
e 25 51
e 25 52
e 25 53
e 25 54
e 25 55
e 25 56
e 25 57
e 25 58
e 25 59
e 25 60
e 25 61
e 25 62
e 25 63
e 25 64
e 25 65
e 25 66
e 25 67
e 25 68
e 25 69
e 25 70
e 25 71
e 25 72
e 25 73
e 25 74
e 25 75
e 25 76
e 25 77
e 25 78
e 25 79
e 25 80
e 25 81
e 25 82
e 25 83
e 25 84
e 25 85
e 25 86
e 25 87
e 25 88
e 25 89
e 25 90
e 25 91
e 25 92
e 25 93
e 25 94
e 25 95
e 25 96
e 25 97
e 25 98
e 25 99
e 25 100
e 26 37
e 26 50
e 26 51
e 26 52
e 26 53
e 26 54
e 26 55
e 26 56
e 26 57
e 26 58
e 26 59
e 26 60
e 26 61
e 26 62
e 26 63
e 26 64
e 26 65
e 26 66
e 26 67
e 26 68
e 26 69
e 26 70
e 26 71
e 26 72
e 26 73
e 26 74
e 26 75
e 26 76
e 26 77
e 26 78
e 26 79
e 26 80
e 26 81
e 26 82
e 26 83
e 26 84
e 26 86
e 26 87
e 26 88
e 26 89
e 26 90
e 26 91
e 26 92
e 26 93
e 26 94
e 26 95
e 26 96
e 26 97
e 26 98
e 26 99
e 26 100
e 27 50
e 27 51
e 27 52
e 27 53
e 27 54
e 27 55
e 27 56
e 27 57
e 27 58
e 27 59
e 27 60
e 27 61
e 27 62
e 27 63
e 27 64
e 27 65
e 27 66
e 27 67
e 27 68
e 27 69
e 27 70
e 27 71
e 27 72
e 27 73
e 27 74
e 27 75
e 27 76
e 27 77
e 27 78
e 27 79
e 27 80
e 27 81
e 27 82
e 27 83
e 27 85
e 27 86
e 27 87
e 27 88
e 27 89
e 27 90
e 27 91
e 27 92
e 27 94
e 27 95
e 27 96
e 27 97
e 27 98
e 27 99
e 27 100
e 28 32
e 28 51
e 28 52
e 28 53
e 28 54
e 28 55
e 28 56
e 28 57
e 28 58
e 28 59
e 28 60
e 28 62
e 28 63
e 28 64
e 28 65
e 28 66
e 28 67
e 28 70
e 28 71
e 28 72
e 28 73
e 28 74
e 28 75
e 28 77
e 28 78
e 28 79
e 28 80
e 28 81
e 28 82
e 28 83
e 28 84
e 28 85
e 28 86
e 28 87
e 28 88
e 28 89
e 28 90
e 28 91
e 28 92
e 28 93
e 28 94
e 28 95
e 28 96
e 28 97
e 28 98
e 28 99
e 28 100
e 29 44
e 29 46
e 29 50
e 29 51
e 29 52
e 29 53
e 29 54
e 29 55
e 29 56
e 29 57
e 29 58
e 29 59
e 29 60
e 29 61
e 29 62
e 29 64
e 29 65
e 29 66
e 29 67
e 29 68
e 29 70
e 29 71
e 29 72
e 29 74
e 29 75
e 29 77
e 29 78
e 29 80
e 29 82
e 29 83
e 29 84
e 29 85
e 29 86
e 29 88
e 29 89
e 29 90
e 29 91
e 29 92
e 29 93
e 29 94
e 29 95
e 29 97
e 29 98
e 29 99
e 29 100
e 30 50
e 30 51
e 30 52
e 30 53
e 30 54
e 30 55
e 30 56
e 30 57
e 30 58
e 30 59
e 30 60
e 30 61
e 30 62
e 30 63
e 30 64
e 30 65
e 30 66
e 30 67
e 30 68
e 30 69
e 30 70
e 30 71
e 30 72
e 30 73
e 30 74
e 30 75
e 30 76
e 30 77
e 30 78
e 30 80
e 30 81
e 30 82
e 30 83
e 30 84
e 30 85
e 30 86
e 30 87
e 30 88
e 30 89
e 30 90
e 30 91
e 30 92
e 30 93
e 30 94
e 30 95
e 30 96
e 30 97
e 30 98
e 30 99
e 30 100
e 31 50
e 31 51
e 31 52
e 31 53
e 31 54
e 31 55
e 31 56
e 31 57
e 31 58
e 31 59
e 31 60
e 31 61
e 31 62
e 31 63
e 31 64
e 31 65
e 31 66
e 31 67
e 31 68
e 31 69
e 31 70
e 31 71
e 31 72
e 31 73
e 31 74
e 31 75
e 31 76
e 31 77
e 31 78
e 31 79
e 31 81
e 31 82
e 31 83
e 31 84
e 31 85
e 31 86
e 31 87
e 31 88
e 31 89
e 31 90
e 31 91
e 31 92
e 31 93
e 31 94
e 31 95
e 31 97
e 31 98
e 31 99
e 31 100
e 32 35
e 32 50
e 32 51
e 32 52
e 32 53
e 32 54
e 32 55
e 32 56
e 32 57
e 32 58
e 32 59
e 32 60
e 32 61
e 32 62
e 32 63
e 32 64
e 32 65
e 32 66
e 32 67
e 32 68
e 32 69
e 32 70
e 32 71
e 32 72
e 32 73
e 32 74
e 32 75
e 32 76
e 32 77
e 32 78
e 32 79
e 32 80
e 32 81
e 32 82
e 32 83
e 32 84
e 32 86
e 32 87
e 32 88
e 32 89
e 32 90
e 32 91
e 32 92
e 32 93
e 32 94
e 32 95
e 32 96
e 32 97
e 32 98
e 32 99
e 32 100
e 33 50
e 33 51
e 33 52
e 33 53
e 33 54
e 33 55
e 33 56
e 33 57
e 33 58
e 33 59
e 33 60
e 33 61
e 33 62
e 33 64
e 33 65
e 33 66
e 33 67
e 33 70
e 33 72
e 33 74
e 33 75
e 33 78
e 33 79
e 33 80
e 33 81
e 33 82
e 33 83
e 33 84
e 33 85
e 33 86
e 33 87
e 33 88
e 33 89
e 33 90
e 33 91
e 33 92
e 33 93
e 33 94
e 33 95
e 33 96
e 33 97
e 33 98
e 33 99
e 33 100
e 34 50
e 34 51
e 34 52
e 34 53
e 34 54
e 34 55
e 34 56
e 34 57
e 34 58
e 34 59
e 34 60
e 34 62
e 34 63
e 34 64
e 34 65
e 34 66
e 34 67
e 34 69
e 34 70
e 34 71
e 34 72
e 34 73
e 34 74
e 34 75
e 34 76
e 34 77
e 34 78
e 34 79
e 34 80
e 34 81
e 34 82
e 34 83
e 34 84
e 34 85
e 34 86
e 34 87
e 34 88
e 34 89
e 34 90
e 34 91
e 34 92
e 34 93
e 34 94
e 34 95
e 34 96
e 34 97
e 34 98
e 34 99
e 34 100
e 35 50
e 35 56
e 35 59
e 35 69
e 35 76
e 35 77
e 35 78
e 35 81
e 35 84
e 35 85
e 35 90
e 35 92
e 35 94
e 36 51
e 36 52
e 36 54
e 36 55
e 36 57
e 36 60
e 36 61
e 36 62
e 36 64
e 36 66
e 36 69
e 36 70
e 36 71
e 36 72
e 36 75
e 36 77
e 36 79
e 36 80
e 36 83
e 36 87
e 36 88
e 36 89
e 36 94
e 36 95
e 37 53
e 37 57
e 37 59
e 37 61
e 37 62
e 37 63
e 37 67
e 37 68
e 37 72
e 37 73
e 37 74
e 37 81
e 37 82
e 37 85
e 37 86
e 37 89
e 37 91
e 37 93
e 37 95
e 37 96
e 37 98
e 37 100
e 38 50
e 38 56
e 38 57
e 38 59
e 38 61
e 38 63
e 38 67
e 38 69
e 38 73
e 38 76
e 38 78
e 38 81
e 38 82
e 38 84
e 38 85
e 38 86
e 38 90
e 38 92
e 38 93
e 38 96
e 39 42
e 39 52
e 39 53
e 39 57
e 39 59
e 39 61
e 39 62
e 39 63
e 39 64
e 39 66
e 39 67
e 39 68
e 39 71
e 39 72
e 39 73
e 39 79
e 39 82
e 39 85
e 39 86
e 39 87
e 39 89
e 39 91
e 39 93
e 39 95
e 39 96
e 40 51
e 40 52
e 40 53
e 40 54
e 40 55
e 40 58
e 40 60
e 40 61
e 40 62
e 40 64
e 40 65
e 40 66
e 40 70
e 40 71
e 40 72
e 40 75
e 40 79
e 40 83
e 40 87
e 40 88
e 40 89
e 40 95
e 41 51
e 41 52
e 41 54
e 41 55
e 41 60
e 41 61
e 41 62
e 41 66
e 41 70
e 41 71
e 41 72
e 41 75
e 41 77
e 41 79
e 41 80
e 41 83
e 41 87
e 41 88
e 41 94
e 42 53
e 42 57
e 42 59
e 42 61
e 42 62
e 42 63
e 42 64
e 42 67
e 42 68
e 42 72
e 42 73
e 42 74
e 42 79
e 42 81
e 42 82
e 42 85
e 42 86
e 42 89
e 42 91
e 42 93
e 42 95
e 42 96
e 43 50
e 43 56
e 43 57
e 43 59
e 43 61
e 43 63
e 43 67
e 43 68
e 43 69
e 43 73
e 43 74
e 43 81
e 43 82
e 43 85
e 43 86
e 43 89
e 43 90
e 43 92
e 43 93
e 43 96
e 44 50
e 44 51
e 44 54
e 44 55
e 44 56
e 44 57
e 44 59
e 44 61
e 44 62
e 44 67
e 44 69
e 44 71
e 44 72
e 44 73
e 44 75
e 44 76
e 44 77
e 44 78
e 44 79
e 44 80
e 44 81
e 44 82
e 44 84
e 44 85
e 44 86
e 44 87
e 44 89
e 44 90
e 44 92
e 44 93
e 44 94
e 44 95
e 44 96
e 45 53
e 45 57
e 45 63
e 45 64
e 45 67
e 45 68
e 45 73
e 45 74
e 45 82
e 45 86
e 45 89
e 45 91
e 45 95
e 45 96
e 46 51
e 46 52
e 46 54
e 46 55
e 46 60
e 46 61
e 46 62
e 46 66
e 46 69
e 46 70
e 46 71
e 46 72
e 46 75
e 46 76
e 46 77
e 46 79
e 46 80
e 46 83
e 46 87
e 46 94
e 47 51
e 47 52
e 47 54
e 47 55
e 47 60
e 47 61
e 47 62
e 47 66
e 47 70
e 47 71
e 47 72
e 47 75
e 47 77
e 47 79
e 47 80
e 47 83
e 47 87
e 47 88
e 47 94
e 48 50
e 48 53
e 48 56
e 48 57
e 48 59
e 48 61
e 48 62
e 48 63
e 48 67
e 48 68
e 48 69
e 48 72
e 48 73
e 48 74
e 48 81
e 48 82
e 48 85
e 48 86
e 48 89
e 48 93
e 48 95
e 48 96
e 49 50
e 49 51
e 49 54
e 49 55
e 49 56
e 49 57
e 49 59
e 49 61
e 49 62
e 49 67
e 49 69
e 49 70
e 49 71
e 49 72
e 49 73
e 49 75
e 49 76
e 49 77
e 49 78
e 49 79
e 49 80
e 49 81
e 49 83
e 49 84
e 49 85
e 49 86
e 49 87
e 49 89
e 49 90
e 49 92
e 49 93
e 49 94
e 49 95
e 49 96
e 50 74
e 50 75
e 50 76
e 50 77
e 50 78
e 50 81
e 50 83
e 50 84
e 50 85
e 50 86
e 50 88
e 50 90
e 50 96
e 50 97
e 50 98
e 50 99
e 50 100
e 51 62
e 51 72
e 51 73
e 51 76
e 51 78
e 51 80
e 51 82
e 51 84
e 51 85
e 51 86
e 51 87
e 51 88
e 51 89
e 51 92
e 51 93
e 51 94
e 51 95
e 51 96
e 51 97
e 51 98
e 51 99
e 51 100
e 52 73
e 52 74
e 52 75
e 52 76
e 52 77
e 52 83
e 52 84
e 52 85
e 52 86
e 52 87
e 52 88
e 52 89
e 52 90
e 52 92
e 52 93
e 52 94
e 52 95
e 52 96
e 52 97
e 52 98
e 52 99
e 53 73
e 53 74
e 53 75
e 53 76
e 53 77
e 53 83
e 53 85
e 53 86
e 53 87
e 53 88
e 53 89
e 53 90
e 53 91
e 53 92
e 53 93
e 53 94
e 53 95
e 53 96
e 53 98
e 53 99
e 53 100
e 54 72
e 54 73
e 54 74
e 54 75
e 54 76
e 54 77
e 54 78
e 54 80
e 54 83
e 54 84
e 54 85
e 54 86
e 54 87
e 54 88
e 54 89
e 54 91
e 54 92
e 54 93
e 54 94
e 54 95
e 54 96
e 54 97
e 54 98
e 54 99
e 54 100
e 55 74
e 55 75
e 55 77
e 55 81
e 55 83
e 55 84
e 55 85
e 55 86
e 55 87
e 55 88
e 55 89
e 55 90
e 55 91
e 55 92
e 55 93
e 55 94
e 55 95
e 55 96
e 55 97
e 55 98
e 55 99
e 55 100
e 56 72
e 56 73
e 56 76
e 56 80
e 56 84
e 56 85
e 56 86
e 56 87
e 56 88
e 56 89
e 56 90
e 56 91
e 56 92
e 56 93
e 56 94
e 56 95
e 56 96
e 56 97
e 56 98
e 56 99
e 56 100
e 57 72
e 57 73
e 57 74
e 57 76
e 57 77
e 57 78
e 57 80
e 57 83
e 57 85
e 57 86
e 57 87
e 57 88
e 57 89
e 57 91
e 57 92
e 57 93
e 57 94
e 57 95
e 57 98
e 57 99
e 57 100
e 58 72
e 58 73
e 58 74
e 58 76
e 58 77
e 58 78
e 58 79
e 58 82
e 58 83
e 58 84
e 58 85
e 58 86
e 58 87
e 58 88
e 58 89
e 58 90
e 58 91
e 58 92
e 58 93
e 58 94
e 58 95
e 58 96
e 58 97
e 58 98
e 58 99
e 58 100
e 59 68
e 59 72
e 59 73
e 59 74
e 59 75
e 59 76
e 59 77
e 59 78
e 59 80
e 59 83
e 59 84
e 59 85
e 59 86
e 59 87
e 59 88
e 59 89
e 59 90
e 59 91
e 59 92
e 59 93
e 59 94
e 59 95
e 59 96
e 59 97
e 59 98
e 59 99
e 59 100
e 60 72
e 60 74
e 60 75
e 60 76
e 60 77
e 60 78
e 60 79
e 60 81
e 60 82
e 60 83
e 60 84
e 60 85
e 60 86
e 60 87
e 60 88
e 60 89
e 60 90
e 60 91
e 60 92
e 60 93
e 60 94
e 60 95
e 60 96
e 60 97
e 60 98
e 60 99
e 60 100
e 61 75
e 61 78
e 61 79
e 61 81
e 61 83
e 61 84
e 61 85
e 61 86
e 61 88
e 61 90
e 61 92
e 61 96
e 61 97
e 61 98
e 61 99
e 62 73
e 62 74
e 62 75
e 62 76
e 62 77
e 62 83
e 62 85
e 62 86
e 62 87
e 62 88
e 62 89
e 62 90
e 62 91
e 62 92
e 62 93
e 62 94
e 62 95
e 62 98
e 62 99
e 62 100
e 63 74
e 63 75
e 63 78
e 63 79
e 63 81
e 63 83
e 63 84
e 63 86
e 63 87
e 63 88
e 63 89
e 63 90
e 63 91
e 63 92
e 63 93
e 63 94
e 63 95
e 63 96
e 63 97
e 63 98
e 63 99
e 63 100
e 64 74
e 64 75
e 64 76
e 64 77
e 64 78
e 64 81
e 64 83
e 64 84
e 64 85
e 64 86
e 64 87
e 64 88
e 64 89
e 64 90
e 64 91
e 64 92
e 64 93
e 64 94
e 64 95
e 64 96
e 64 97
e 64 98
e 64 99
e 64 100
e 65 72
e 65 73
e 65 74
e 65 75
e 65 76
e 65 77
e 65 78
e 65 79
e 65 81
e 65 83
e 65 84
e 65 85
e 65 86
e 65 87
e 65 88
e 65 89
e 65 90
e 65 91
e 65 92
e 65 93
e 65 94
e 65 95
e 65 96
e 65 97
e 65 98
e 65 99
e 65 100
e 66 72
e 66 74
e 66 75
e 66 76
e 66 77
e 66 78
e 66 79
e 66 81
e 66 83
e 66 84
e 66 85
e 66 86
e 66 87
e 66 88
e 66 89
e 66 90
e 66 91
e 66 92
e 66 93
e 66 94
e 66 95
e 66 96
e 66 97
e 66 98
e 66 99
e 66 100
e 67 74
e 67 75
e 67 78
e 67 81
e 67 83
e 67 84
e 67 85
e 67 86
e 67 87
e 67 88
e 67 89
e 67 90
e 67 91
e 67 92
e 67 93
e 67 94
e 67 95
e 67 96
e 67 97
e 67 98
e 67 99
e 67 100
e 68 72
e 68 74
e 68 76
e 68 77
e 68 78
e 68 79
e 68 82
e 68 83
e 68 84
e 68 86
e 68 88
e 68 89
e 68 90
e 68 91
e 68 92
e 68 93
e 68 94
e 68 95
e 68 96
e 68 97
e 68 98
e 68 99
e 68 100
e 69 73
e 69 74
e 69 76
e 69 77
e 69 80
e 69 84
e 69 85
e 69 86
e 69 87
e 69 88
e 69 89
e 69 90
e 69 91
e 69 92
e 69 93
e 69 94
e 69 95
e 69 96
e 69 97
e 69 98
e 69 99
e 69 100
e 70 73
e 70 74
e 70 75
e 70 77
e 70 84
e 70 85
e 70 86
e 70 87
e 70 88
e 70 89
e 70 90
e 70 91
e 70 92
e 70 93
e 70 94
e 70 95
e 70 96
e 70 97
e 70 98
e 70 99
e 70 100
e 71 72
e 71 78
e 71 79
e 71 82
e 71 84
e 71 85
e 71 86
e 71 87
e 71 88
e 71 89
e 71 90
e 71 91
e 71 92
e 71 93
e 71 94
e 71 95
e 71 96
e 71 97
e 71 98
e 71 99
e 71 100
e 72 79
e 72 80
e 72 81
e 72 82
e 72 83
e 72 86
e 72 87
e 72 88
e 72 90
e 72 92
e 72 93
e 72 94
e 72 95
e 72 96
e 72 98
e 72 99
e 73 79
e 73 81
e 73 82
e 73 83
e 73 85
e 73 86
e 73 87
e 73 88
e 73 89
e 73 91
e 73 93
e 73 97
e 73 100
e 74 80
e 74 81
e 74 82
e 74 83
e 74 84
e 74 85
e 74 86
e 74 87
e 74 88
e 74 91
e 74 92
e 74 94
e 74 96
e 74 97
e 74 98
e 74 99
e 75 79
e 75 80
e 75 81
e 75 83
e 75 84
e 75 85
e 75 86
e 75 89
e 75 91
e 75 92
e 75 93
e 75 95
e 75 96
e 75 97
e 75 98
e 75 99
e 75 100
e 76 80
e 76 82
e 76 86
e 76 87
e 76 88
e 76 90
e 76 91
e 76 93
e 76 96
e 76 100
e 77 79
e 77 81
e 77 82
e 77 83
e 77 86
e 77 88
e 77 89
e 77 92
e 77 94
e 77 96
e 77 97
e 77 100
e 78 80
e 78 81
e 78 82
e 78 83
e 78 85
e 78 86
e 78 88
e 78 90
e 78 92
e 78 93
e 78 96
e 78 97
e 78 99
e 78 100
e 81 92
